NAME : SCA3-8.77194.tour
COMMENT : Cost = 0_77194
COMMENT : Found by LKH [Keld Helsgaun] Thu Sep 14 15:15:00 2017
TYPE : TOUR
DIMENSION : 54
TOUR_SECTION
1
29
25
8
43
39
37
18
2
27
40
24
50
53
28
15
10
34
3
48
5
38
23
30
26
12
16
54
36
19
22
47
7
51
32
9
46
14
6
52
42
20
11
41
17
31
35
33
21
44
4
45
49
13
-1
EOF
